NAME : lr202.1197663.tour
COMMENT : Cost = 0_1197663
COMMENT : Found by LKH [Keld Helsgaun] Fri Sep 15 17:42:01 2017
TYPE : TOUR
DIMENSION : 103
TOUR_SECTION
1
97
60
93
99
86
92
15
43
3
76
40
24
16
39
45
17
62
100
19
9
85
87
6
7
95
96
98
44
57
5
55
56
26
25
81
13
27
59
103
84
46
49
48
37
64
65
12
20
63
89
31
72
79
80
82
10
52
91
50
47
83
8
11
21
33
67
36
69
78
2
71
32
53
102
51
34
66
35
30
4
29
28
70
77
68
74
41
54
88
58
42
23
75
73
22
14
38
101
94
18
61
90
-1
EOF
